c width = 2, time = 0.000078
s td 26 3 28
b 1 6 15 20
b 2 6 20 28
b 3 6 28 3
b 4 6 3 4
b 5 6 4 5
b 6 15 6 7
b 7 15 7 8
b 8 15 8 9
b 9 15 9 10
b 10 15 10 11
b 11 15 11 12
b 12 15 12 14
b 13 20 15 16
b 14 20 16 17
b 15 20 17 18
b 16 20 18 19
b 17 28 20 13
b 18 28 13 22
b 19 28 22 23
b 20 28 23 24
b 21 28 24 25
b 22 28 25 26
b 23 28 26 27
b 24 13 2
b 25 2 1
b 26 20 21
1 2
2 3
3 4
4 5
1 6
6 7
7 8
8 9
9 10
10 11
11 12
1 13
13 14
14 15
15 16
2 17
17 18
18 19
19 20
20 21
21 22
22 23
17 24
24 25
1 26
